p cnf 484 960
1 2 3 4 5 6 7 8 9 10 11 12 21 23 31 34 41 45 51 56 61 67 71 78 81 89 91 100 0
1 2 3 4 5 6 7 8 9 10 11 12 13 22 24 32 35 42 46 52 57 62 68 72 79 82 90 92 0
1 2 3 4 5 6 7 8 9 10 12 13 14 21 23 25 33 36 43 47 53 58 63 69 73 80 83 93 0
1 2 3 4 5 6 7 8 9 10 13 14 15 22 24 26 31 34 37 44 48 54 59 64 70 74 84 94 0
1 2 3 4 5 6 7 8 9 10 14 15 16 23 25 27 32 35 38 41 45 49 55 60 65 75 85 95 0
1 2 3 4 5 6 7 8 9 10 15 16 17 24 26 28 33 36 39 42 46 50 51 56 66 76 86 96 0
1 2 3 4 5 6 7 8 9 10 16 17 18 25 27 29 34 37 40 43 47 52 57 61 67 77 87 97 0
1 2 3 4 5 6 7 8 9 10 17 18 19 26 28 30 35 38 44 48 53 58 62 68 71 78 88 98 0
1 2 3 4 5 6 7 8 9 10 18 19 20 27 29 36 39 45 49 54 59 63 69 72 79 81 89 99 0
1 2 3 4 5 6 7 8 9 10 19 20 28 30 37 40 46 50 55 60 64 70 73 80 82 90 91 100 0
1 2 11 12 13 14 15 16 17 18 19 20 21 22 31 33 41 44 51 55 61 66 71 77 81 88 91 99 0
1 2 3 11 12 13 14 15 16 17 18 19 20 21 22 23 32 34 42 45 52 56 62 67 72 78 82 89 92 100 0
2 3 4 11 12 13 14 15 16 17 18 19 20 22 23 24 31 33 35 43 46 53 57 63 68 73 79 83 90 93 0
3 4 5 11 12 13 14 15 16 17 18 19 20 23 24 25 32 34 36 41 44 47 54 58 64 69 74 80 84 94 0
4 5 6 11 12 13 14 15 16 17 18 19 20 24 25 26 33 35 37 42 45 48 51 55 59 65 70 75 85 95 0
5 6 7 11 12 13 14 15 16 17 18 19 20 25 26 27 34 36 38 43 46 49 52 56 60 61 66 76 86 96 0
6 7 8 11 12 13 14 15 16 17 18 19 20 26 27 28 35 37 39 44 47 50 53 57 62 67 71 77 87 97 0
7 8 9 11 12 13 14 15 16 17 18 19 20 27 28 29 36 38 40 45 48 54 58 63 68 72 78 81 88 98 0
8 9 10 11 12 13 14 15 16 17 18 19 20 28 29 30 37 39 46 49 55 59 64 69 73 79 82 89 91 99 0
9 10 11 12 13 14 15 16 17 18 19 20 29 30 38 40 47 50 56 60 65 70 74 80 83 90 92 100 0
1 3 11 12 21 22 23 24 25 26 27 28 29 30 31 32 41 43 51 54 61 65 71 76 81 87 91 98 0
2 4 11 12 13 21 22 23 24 25 26 27 28 29 30 31 32 33 42 44 52 55 62 66 72 77 82 88 92 99 0
1 3 5 12 13 14 21 22 23 24 25 26 27 28 29 30 32 33 34 41 43 45 53 56 63 67 73 78 83 89 93 100 0
2 4 6 13 14 15 21 22 23 24 25 26 27 28 29 30 33 34 35 42 44 46 51 54 57 64 68 74 79 84 90 94 0
3 5 7 14 15 16 21 22 23 24 25 26 27 28 29 30 34 35 36 43 45 47 52 55 58 61 65 69 75 80 85 95 0
4 6 8 15 16 17 21 22 23 24 25 26 27 28 29 30 35 36 37 44 46 48 53 56 59 62 66 70 71 76 86 96 0
5 7 9 16 17 18 21 22 23 24 25 26 27 28 29 30 36 37 38 45 47 49 54 57 60 63 67 72 77 81 87 97 0
6 8 10 17 18 19 21 22 23 24 25 26 27 28 29 30 37 38 39 46 48 50 55 58 64 68 73 78 82 88 91 98 0
7 9 18 19 20 21 22 23 24 25 26 27 28 29 30 38 39 40 47 49 56 59 65 69 74 79 83 89 92 99 0
8 10 19 20 21 22 23 24 25 26 27 28 29 30 39 40 48 50 57 60 66 70 75 80 84 90 93 100 0
1 4 11 13 21 22 31 32 33 34 35 36 37 38 39 40 41 42 51 53 61 64 71 75 81 86 91 97 0
2 5 12 14 21 22 23 31 32 33 34 35 36 37 38 39 40 41 42 43 52 54 62 65 72 76 82 87 92 98 0
3 6 11 13 15 22 23 24 31 32 33 34 35 36 37 38 39 40 42 43 44 51 53 55 63 66 73 77 83 88 93 99 0
1 4 7 12 14 16 23 24 25 31 32 33 34 35 36 37 38 39 40 43 44 45 52 54 56 61 64 67 74 78 84 89 94 100 0
2 5 8 13 15 17 24 25 26 31 32 33 34 35 36 37 38 39 40 44 45 46 53 55 57 62 65 68 71 75 79 85 90 95 0
3 6 9 14 16 18 25 26 27 31 32 33 34 35 36 37 38 39 40 45 46 47 54 56 58 63 66 69 72 76 80 81 86 96 0
4 7 10 15 17 19 26 27 28 31 32 33 34 35 36 37 38 39 40 46 47 48 55 57 59 64 67 70 73 77 82 87 91 97 0
5 8 16 18 20 27 28 29 31 32 33 34 35 36 37 38 39 40 47 48 49 56 58 60 65 68 74 78 83 88 92 98 0
6 9 17 19 28 29 30 31 32 33 34 35 36 37 38 39 40 48 49 50 57 59 66 69 75 79 84 89 93 99 0
7 10 18 20 29 30 31 32 33 34 35 36 37 38 39 40 49 50 58 60 67 70 76 80 85 90 94 100 0
1 5 11 14 21 23 31 32 41 42 43 44 45 46 47 48 49 50 51 52 61 63 71 74 81 85 91 96 0
2 6 12 15 22 24 31 32 33 41 42 43 44 45 46 47 48 49 50 51 52 53 62 64 72 75 82 86 92 97 0
3 7 13 16 21 23 25 32 33 34 41 42 43 44 45 46 47 48 49 50 52 53 54 61 63 65 73 76 83 87 93 98 0
4 8 11 14 17 22 24 26 33 34 35 41 42 43 44 45 46 47 48 49 50 53 54 55 62 64 66 71 74 77 84 88 94 99 0
1 5 9 12 15 18 23 25 27 34 35 36 41 42 43 44 45 46 47 48 49 50 54 55 56 63 65 67 72 75 78 81 85 89 95 100 0
2 6 10 13 16 19 24 26 28 35 36 37 41 42 43 44 45 46 47 48 49 50 55 56 57 64 66 68 73 76 79 82 86 90 91 96 0
3 7 14 17 20 25 27 29 36 37 38 41 42 43 44 45 46 47 48 49 50 56 57 58 65 67 69 74 77 80 83 87 92 97 0
4 8 15 18 26 28 30 37 38 39 41 42 43 44 45 46 47 48 49 50 57 58 59 66 68 70 75 78 84 88 93 98 0
5 9 16 19 27 29 38 39 40 41 42 43 44 45 46 47 48 49 50 58 59 60 67 69 76 79 85 89 94 99 0
6 10 17 20 28 30 39 40 41 42 43 44 45 46 47 48 49 50 59 60 68 70 77 80 86 90 95 100 0
1 6 11 15 21 24 31 33 41 42 51 52 53 54 55 56 57 58 59 60 61 62 71 73 81 84 91 95 0
2 7 12 16 22 25 32 34 41 42 43 51 52 53 54 55 56 57 58 59 60 61 62 63 72 74 82 85 92 96 0
3 8 13 17 23 26 31 33 35 42 43 44 51 52 53 54 55 56 57 58 59 60 62 63 64 71 73 75 83 86 93 97 0
4 9 14 18 21 24 27 32 34 36 43 44 45 51 52 53 54 55 56 57 58 59 60 63 64 65 72 74 76 81 84 87 94 98 0
5 10 11 15 19 22 25 28 33 35 37 44 45 46 51 52 53 54 55 56 57 58 59 60 64 65 66 73 75 77 82 85 88 91 95 99 0
1 6 12 16 20 23 26 29 34 36 38 45 46 47 51 52 53 54 55 56 57 58 59 60 65 66 67 74 76 78 83 86 89 92 96 100 0
2 7 13 17 24 27 30 35 37 39 46 47 48 51 52 53 54 55 56 57 58 59 60 66 67 68 75 77 79 84 87 90 93 97 0
3 8 14 18 25 28 36 38 40 47 48 49 51 52 53 54 55 56 57 58 59 60 67 68 69 76 78 80 85 88 94 98 0
4 9 15 19 26 29 37 39 48 49 50 51 52 53 54 55 56 57 58 59 60 68 69 70 77 79 86 89 95 99 0
5 10 16 20 27 30 38 40 49 50 51 52 53 54 55 56 57 58 59 60 69 70 78 80 87 90 96 100 0
1 7 11 16 21 25 31 34 41 43 51 52 61 62 63 64 65 66 67 68 69 70 71 72 81 83 91 94 0
2 8 12 17 22 26 32 35 42 44 51 52 53 61 62 63 64 65 66 67 68 69 70 71 72 73 82 84 92 95 0
3 9 13 18 23 27 33 36 41 43 45 52 53 54 61 62 63 64 65 66 67 68 69 70 72 73 74 81 83 85 93 96 0
4 10 14 19 24 28 31 34 37 42 44 46 53 54 55 61 62 63 64 65 66 67 68 69 70 73 74 75 82 84 86 91 94 97 0
5 15 20 21 25 29 32 35 38 43 45 47 54 55 56 61 62 63 64 65 66 67 68 69 70 74 75 76 83 85 87 92 95 98 0
6 11 16 22 26 30 33 36 39 44 46 48 55 56 57 61 62 63 64 65 66 67 68 69 70 75 76 77 84 86 88 93 96 99 0
1 7 12 17 23 27 34 37 40 45 47 49 56 57 58 61 62 63 64 65 66 67 68 69 70 76 77 78 85 87 89 94 97 100 0
2 8 13 18 24 28 35 38 46 48 50 57 58 59 61 62 63 64 65 66 67 68 69 70 77 78 79 86 88 90 95 98 0
3 9 14 19 25 29 36 39 47 49 58 59 60 61 62 63 64 65 66 67 68 69 70 78 79 80 87 89 96 99 0
4 10 15 20 26 30 37 40 48 50 59 60 61 62 63 64 65 66 67 68 69 70 79 80 88 90 97 100 0
1 8 11 17 21 26 31 35 41 44 51 53 61 62 71 72 73 74 75 76 77 78 79 80 81 82 91 93 0
2 9 12 18 22 27 32 36 42 45 52 54 61 62 63 71 72 73 74 75 76 77 78 79 80 81 82 83 92 94 0
3 10 13 19 23 28 33 37 43 46 51 53 55 62 63 64 71 72 73 74 75 76 77 78 79 80 82 83 84 91 93 95 0
4 14 20 24 29 34 38 41 44 47 52 54 56 63 64 65 71 72 73 74 75 76 77 78 79 80 83 84 85 92 94 96 0
5 15 25 30 31 35 39 42 45 48 53 55 57 64 65 66 71 72 73 74 75 76 77 78 79 80 84 85 86 93 95 97 0
6 16 21 26 32 36 40 43 46 49 54 56 58 65 66 67 71 72 73 74 75 76 77 78 79 80 85 86 87 94 96 98 0
7 11 17 22 27 33 37 44 47 50 55 57 59 66 67 68 71 72 73 74 75 76 77 78 79 80 86 87 88 95 97 99 0
1 8 12 18 23 28 34 38 45 48 56 58 60 67 68 69 71 72 73 74 75 76 77 78 79 80 87 88 89 96 98 100 0
2 9 13 19 24 29 35 39 46 49 57 59 68 69 70 71 72 73 74 75 76 77 78 79 80 88 89 90 97 99 0
3 10 14 20 25 30 36 40 47 50 58 60 69 70 71 72 73 74 75 76 77 78 79 80 89 90 98 100 0
1 9 11 18 21 27 31 36 41 45 51 54 61 63 71 72 81 82 83 84 85 86 87 88 89 90 91 92 0
2 10 12 19 22 28 32 37 42 46 52 55 62 64 71 72 73 81 82 83 84 85 86 87 88 89 90 91 92 93 0
3 13 20 23 29 33 38 43 47 53 56 61 63 65 72 73 74 81 82 83 84 85 86 87 88 89 90 92 93 94 0
4 14 24 30 34 39 44 48 51 54 57 62 64 66 73 74 75 81 82 83 84 85 86 87 88 89 90 93 94 95 0
5 15 25 35 40 41 45 49 52 55 58 63 65 67 74 75 76 81 82 83 84 85 86 87 88 89 90 94 95 96 0
6 16 26 31 36 42 46 50 53 56 59 64 66 68 75 76 77 81 82 83 84 85 86 87 88 89 90 95 96 97 0
7 17 21 27 32 37 43 47 54 57 60 65 67 69 76 77 78 81 82 83 84 85 86 87 88 89 90 96 97 98 0
8 11 18 22 28 33 38 44 48 55 58 66 68 70 77 78 79 81 82 83 84 85 86 87 88 89 90 97 98 99 0
1 9 12 19 23 29 34 39 45 49 56 59 67 69 78 79 80 81 82 83 84 85 86 87 88 89 90 98 99 100 0
2 10 13 20 24 30 35 40 46 50 57 60 68 70 79 80 81 82 83 84 85 86 87 88 89 90 99 100 0
1 10 11 19 21 28 31 37 41 46 51 55 61 64 71 73 81 82 91 92 93 94 95 96 97 98 99 100 0
2 12 20 22 29 32 38 42 47 52 56 62 65 72 74 81 82 83 91 92 93 94 95 96 97 98 99 100 0
3 13 23 30 33 39 43 48 53 57 63 66 71 73 75 82 83 84 91 92 93 94 95 96 97 98 99 100 0
4 14 24 34 40 44 49 54 58 61 64 67 72 74 76 83 84 85 91 92 93 94 95 96 97 98 99 100 0
5 15 25 35 45 50 51 55 59 62 65 68 73 75 77 84 85 86 91 92 93 94 95 96 97 98 99 100 0
6 16 26 36 41 46 52 56 60 63 66 69 74 76 78 85 86 87 91 92 93 94 95 96 97 98 99 100 0
7 17 27 31 37 42 47 53 57 64 67 70 75 77 79 86 87 88 91 92 93 94 95 96 97 98 99 100 0
8 18 21 28 32 38 43 48 54 58 65 68 76 78 80 87 88 89 91 92 93 94 95 96 97 98 99 100 0
9 11 19 22 29 33 39 44 49 55 59 66 69 77 79 88 89 90 91 92 93 94 95 96 97 98 99 100 0
1 10 12 20 23 30 34 40 45 50 56 60 67 70 78 80 89 90 91 92 93 94 95 96 97 98 99 100 0
-1 101 0
-101 102 0
-2 -101 103 0
-103 104 0
-3 -103 105 0
-105 106 0
-4 -105 107 0
-107 108 0
-5 -107 0
-2 102 0
-102 109 0
-3 -102 104 0
-104 110 0
-4 -104 106 0
-106 111 0
-5 -106 108 0
-108 112 0
-6 -108 0
-3 109 0
-109 113 0
-4 -109 110 0
-110 114 0
-5 -110 111 0
-111 115 0
-6 -111 112 0
-112 116 0
-7 -112 0
-4 113 0
-113 117 0
-5 -113 114 0
-114 118 0
-6 -114 115 0
-115 119 0
-7 -115 116 0
-116 120 0
-8 -116 0
-5 117 0
-117 121 0
-6 -117 118 0
-118 122 0
-7 -118 119 0
-119 123 0
-8 -119 120 0
-120 124 0
-9 -120 0
-6 121 0
-121 125 0
-7 -121 122 0
-122 126 0
-8 -122 123 0
-123 127 0
-9 -123 124 0
-124 128 0
-10 -124 0
-7 125 0
-125 129 0
-8 -125 126 0
-126 130 0
-9 -126 127 0
-127 131 0
-10 -127 128 0
-128 132 0
-11 -128 0
-8 129 0
-129 133 0
-9 -129 130 0
-130 134 0
-10 -130 131 0
-131 135 0
-11 -131 132 0
-132 136 0
-12 -132 0
-9 133 0
-133 137 0
-10 -133 134 0
-134 138 0
-11 -134 135 0
-135 139 0
-12 -135 136 0
-136 140 0
-13 -136 0
-10 137 0
-137 141 0
-11 -137 138 0
-138 142 0
-12 -138 139 0
-139 143 0
-13 -139 140 0
-140 144 0
-14 -140 0
-11 141 0
-141 145 0
-12 -141 142 0
-142 146 0
-13 -142 143 0
-143 147 0
-14 -143 144 0
-144 148 0
-15 -144 0
-12 145 0
-145 149 0
-13 -145 146 0
-146 150 0
-14 -146 147 0
-147 151 0
-15 -147 148 0
-148 152 0
-16 -148 0
-13 149 0
-149 153 0
-14 -149 150 0
-150 154 0
-15 -150 151 0
-151 155 0
-16 -151 152 0
-152 156 0
-17 -152 0
-14 153 0
-153 157 0
-15 -153 154 0
-154 158 0
-16 -154 155 0
-155 159 0
-17 -155 156 0
-156 160 0
-18 -156 0
-15 157 0
-157 161 0
-16 -157 158 0
-158 162 0
-17 -158 159 0
-159 163 0
-18 -159 160 0
-160 164 0
-19 -160 0
-16 161 0
-161 165 0
-17 -161 162 0
-162 166 0
-18 -162 163 0
-163 167 0
-19 -163 164 0
-164 168 0
-20 -164 0
-17 165 0
-165 169 0
-18 -165 166 0
-166 170 0
-19 -166 167 0
-167 171 0
-20 -167 168 0
-168 172 0
-21 -168 0
-18 169 0
-169 173 0
-19 -169 170 0
-170 174 0
-20 -170 171 0
-171 175 0
-21 -171 172 0
-172 176 0
-22 -172 0
-19 173 0
-173 177 0
-20 -173 174 0
-174 178 0
-21 -174 175 0
-175 179 0
-22 -175 176 0
-176 180 0
-23 -176 0
-20 177 0
-177 181 0
-21 -177 178 0
-178 182 0
-22 -178 179 0
-179 183 0
-23 -179 180 0
-180 184 0
-24 -180 0
-21 181 0
-181 185 0
-22 -181 182 0
-182 186 0
-23 -182 183 0
-183 187 0
-24 -183 184 0
-184 188 0
-25 -184 0
-22 185 0
-185 189 0
-23 -185 186 0
-186 190 0
-24 -186 187 0
-187 191 0
-25 -187 188 0
-188 192 0
-26 -188 0
-23 189 0
-189 193 0
-24 -189 190 0
-190 194 0
-25 -190 191 0
-191 195 0
-26 -191 192 0
-192 196 0
-27 -192 0
-24 193 0
-193 197 0
-25 -193 194 0
-194 198 0
-26 -194 195 0
-195 199 0
-27 -195 196 0
-196 200 0
-28 -196 0
-25 197 0
-197 201 0
-26 -197 198 0
-198 202 0
-27 -198 199 0
-199 203 0
-28 -199 200 0
-200 204 0
-29 -200 0
-26 201 0
-201 205 0
-27 -201 202 0
-202 206 0
-28 -202 203 0
-203 207 0
-29 -203 204 0
-204 208 0
-30 -204 0
-27 205 0
-205 209 0
-28 -205 206 0
-206 210 0
-29 -206 207 0
-207 211 0
-30 -207 208 0
-208 212 0
-31 -208 0
-28 209 0
-209 213 0
-29 -209 210 0
-210 214 0
-30 -210 211 0
-211 215 0
-31 -211 212 0
-212 216 0
-32 -212 0
-29 213 0
-213 217 0
-30 -213 214 0
-214 218 0
-31 -214 215 0
-215 219 0
-32 -215 216 0
-216 220 0
-33 -216 0
-30 217 0
-217 221 0
-31 -217 218 0
-218 222 0
-32 -218 219 0
-219 223 0
-33 -219 220 0
-220 224 0
-34 -220 0
-31 221 0
-221 225 0
-32 -221 222 0
-222 226 0
-33 -222 223 0
-223 227 0
-34 -223 224 0
-224 228 0
-35 -224 0
-32 225 0
-225 229 0
-33 -225 226 0
-226 230 0
-34 -226 227 0
-227 231 0
-35 -227 228 0
-228 232 0
-36 -228 0
-33 229 0
-229 233 0
-34 -229 230 0
-230 234 0
-35 -230 231 0
-231 235 0
-36 -231 232 0
-232 236 0
-37 -232 0
-34 233 0
-233 237 0
-35 -233 234 0
-234 238 0
-36 -234 235 0
-235 239 0
-37 -235 236 0
-236 240 0
-38 -236 0
-35 237 0
-237 241 0
-36 -237 238 0
-238 242 0
-37 -238 239 0
-239 243 0
-38 -239 240 0
-240 244 0
-39 -240 0
-36 241 0
-241 245 0
-37 -241 242 0
-242 246 0
-38 -242 243 0
-243 247 0
-39 -243 244 0
-244 248 0
-40 -244 0
-37 245 0
-245 249 0
-38 -245 246 0
-246 250 0
-39 -246 247 0
-247 251 0
-40 -247 248 0
-248 252 0
-41 -248 0
-38 249 0
-249 253 0
-39 -249 250 0
-250 254 0
-40 -250 251 0
-251 255 0
-41 -251 252 0
-252 256 0
-42 -252 0
-39 253 0
-253 257 0
-40 -253 254 0
-254 258 0
-41 -254 255 0
-255 259 0
-42 -255 256 0
-256 260 0
-43 -256 0
-40 257 0
-257 261 0
-41 -257 258 0
-258 262 0
-42 -258 259 0
-259 263 0
-43 -259 260 0
-260 264 0
-44 -260 0
-41 261 0
-261 265 0
-42 -261 262 0
-262 266 0
-43 -262 263 0
-263 267 0
-44 -263 264 0
-264 268 0
-45 -264 0
-42 265 0
-265 269 0
-43 -265 266 0
-266 270 0
-44 -266 267 0
-267 271 0
-45 -267 268 0
-268 272 0
-46 -268 0
-43 269 0
-269 273 0
-44 -269 270 0
-270 274 0
-45 -270 271 0
-271 275 0
-46 -271 272 0
-272 276 0
-47 -272 0
-44 273 0
-273 277 0
-45 -273 274 0
-274 278 0
-46 -274 275 0
-275 279 0
-47 -275 276 0
-276 280 0
-48 -276 0
-45 277 0
-277 281 0
-46 -277 278 0
-278 282 0
-47 -278 279 0
-279 283 0
-48 -279 280 0
-280 284 0
-49 -280 0
-46 281 0
-281 285 0
-47 -281 282 0
-282 286 0
-48 -282 283 0
-283 287 0
-49 -283 284 0
-284 288 0
-50 -284 0
-47 285 0
-285 289 0
-48 -285 286 0
-286 290 0
-49 -286 287 0
-287 291 0
-50 -287 288 0
-288 292 0
-51 -288 0
-48 289 0
-289 293 0
-49 -289 290 0
-290 294 0
-50 -290 291 0
-291 295 0
-51 -291 292 0
-292 296 0
-52 -292 0
-49 293 0
-293 297 0
-50 -293 294 0
-294 298 0
-51 -294 295 0
-295 299 0
-52 -295 296 0
-296 300 0
-53 -296 0
-50 297 0
-297 301 0
-51 -297 298 0
-298 302 0
-52 -298 299 0
-299 303 0
-53 -299 300 0
-300 304 0
-54 -300 0
-51 301 0
-301 305 0
-52 -301 302 0
-302 306 0
-53 -302 303 0
-303 307 0
-54 -303 304 0
-304 308 0
-55 -304 0
-52 305 0
-305 309 0
-53 -305 306 0
-306 310 0
-54 -306 307 0
-307 311 0
-55 -307 308 0
-308 312 0
-56 -308 0
-53 309 0
-309 313 0
-54 -309 310 0
-310 314 0
-55 -310 311 0
-311 315 0
-56 -311 312 0
-312 316 0
-57 -312 0
-54 313 0
-313 317 0
-55 -313 314 0
-314 318 0
-56 -314 315 0
-315 319 0
-57 -315 316 0
-316 320 0
-58 -316 0
-55 317 0
-317 321 0
-56 -317 318 0
-318 322 0
-57 -318 319 0
-319 323 0
-58 -319 320 0
-320 324 0
-59 -320 0
-56 321 0
-321 325 0
-57 -321 322 0
-322 326 0
-58 -322 323 0
-323 327 0
-59 -323 324 0
-324 328 0
-60 -324 0
-57 325 0
-325 329 0
-58 -325 326 0
-326 330 0
-59 -326 327 0
-327 331 0
-60 -327 328 0
-328 332 0
-61 -328 0
-58 329 0
-329 333 0
-59 -329 330 0
-330 334 0
-60 -330 331 0
-331 335 0
-61 -331 332 0
-332 336 0
-62 -332 0
-59 333 0
-333 337 0
-60 -333 334 0
-334 338 0
-61 -334 335 0
-335 339 0
-62 -335 336 0
-336 340 0
-63 -336 0
-60 337 0
-337 341 0
-61 -337 338 0
-338 342 0
-62 -338 339 0
-339 343 0
-63 -339 340 0
-340 344 0
-64 -340 0
-61 341 0
-341 345 0
-62 -341 342 0
-342 346 0
-63 -342 343 0
-343 347 0
-64 -343 344 0
-344 348 0
-65 -344 0
-62 345 0
-345 349 0
-63 -345 346 0
-346 350 0
-64 -346 347 0
-347 351 0
-65 -347 348 0
-348 352 0
-66 -348 0
-63 349 0
-349 353 0
-64 -349 350 0
-350 354 0
-65 -350 351 0
-351 355 0
-66 -351 352 0
-352 356 0
-67 -352 0
-64 353 0
-353 357 0
-65 -353 354 0
-354 358 0
-66 -354 355 0
-355 359 0
-67 -355 356 0
-356 360 0
-68 -356 0
-65 357 0
-357 361 0
-66 -357 358 0
-358 362 0
-67 -358 359 0
-359 363 0
-68 -359 360 0
-360 364 0
-69 -360 0
-66 361 0
-361 365 0
-67 -361 362 0
-362 366 0
-68 -362 363 0
-363 367 0
-69 -363 364 0
-364 368 0
-70 -364 0
-67 365 0
-365 369 0
-68 -365 366 0
-366 370 0
-69 -366 367 0
-367 371 0
-70 -367 368 0
-368 372 0
-71 -368 0
-68 369 0
-369 373 0
-69 -369 370 0
-370 374 0
-70 -370 371 0
-371 375 0
-71 -371 372 0
-372 376 0
-72 -372 0
-69 373 0
-373 377 0
-70 -373 374 0
-374 378 0
-71 -374 375 0
-375 379 0
-72 -375 376 0
-376 380 0
-73 -376 0
-70 377 0
-377 381 0
-71 -377 378 0
-378 382 0
-72 -378 379 0
-379 383 0
-73 -379 380 0
-380 384 0
-74 -380 0
-71 381 0
-381 385 0
-72 -381 382 0
-382 386 0
-73 -382 383 0
-383 387 0
-74 -383 384 0
-384 388 0
-75 -384 0
-72 385 0
-385 389 0
-73 -385 386 0
-386 390 0
-74 -386 387 0
-387 391 0
-75 -387 388 0
-388 392 0
-76 -388 0
-73 389 0
-389 393 0
-74 -389 390 0
-390 394 0
-75 -390 391 0
-391 395 0
-76 -391 392 0
-392 396 0
-77 -392 0
-74 393 0
-393 397 0
-75 -393 394 0
-394 398 0
-76 -394 395 0
-395 399 0
-77 -395 396 0
-396 400 0
-78 -396 0
-75 397 0
-397 401 0
-76 -397 398 0
-398 402 0
-77 -398 399 0
-399 403 0
-78 -399 400 0
-400 404 0
-79 -400 0
-76 401 0
-401 405 0
-77 -401 402 0
-402 406 0
-78 -402 403 0
-403 407 0
-79 -403 404 0
-404 408 0
-80 -404 0
-77 405 0
-405 409 0
-78 -405 406 0
-406 410 0
-79 -406 407 0
-407 411 0
-80 -407 408 0
-408 412 0
-81 -408 0
-78 409 0
-409 413 0
-79 -409 410 0
-410 414 0
-80 -410 411 0
-411 415 0
-81 -411 412 0
-412 416 0
-82 -412 0
-79 413 0
-413 417 0
-80 -413 414 0
-414 418 0
-81 -414 415 0
-415 419 0
-82 -415 416 0
-416 420 0
-83 -416 0
-80 417 0
-417 421 0
-81 -417 418 0
-418 422 0
-82 -418 419 0
-419 423 0
-83 -419 420 0
-420 424 0
-84 -420 0
-81 421 0
-421 425 0
-82 -421 422 0
-422 426 0
-83 -422 423 0
-423 427 0
-84 -423 424 0
-424 428 0
-85 -424 0
-82 425 0
-425 429 0
-83 -425 426 0
-426 430 0
-84 -426 427 0
-427 431 0
-85 -427 428 0
-428 432 0
-86 -428 0
-83 429 0
-429 433 0
-84 -429 430 0
-430 434 0
-85 -430 431 0
-431 435 0
-86 -431 432 0
-432 436 0
-87 -432 0
-84 433 0
-433 437 0
-85 -433 434 0
-434 438 0
-86 -434 435 0
-435 439 0
-87 -435 436 0
-436 440 0
-88 -436 0
-85 437 0
-437 441 0
-86 -437 438 0
-438 442 0
-87 -438 439 0
-439 443 0
-88 -439 440 0
-440 444 0
-89 -440 0
-86 441 0
-441 445 0
-87 -441 442 0
-442 446 0
-88 -442 443 0
-443 447 0
-89 -443 444 0
-444 448 0
-90 -444 0
-87 445 0
-445 449 0
-88 -445 446 0
-446 450 0
-89 -446 447 0
-447 451 0
-90 -447 448 0
-448 452 0
-91 -448 0
-88 449 0
-449 453 0
-89 -449 450 0
-450 454 0
-90 -450 451 0
-451 455 0
-91 -451 452 0
-452 456 0
-92 -452 0
-89 453 0
-453 457 0
-90 -453 454 0
-454 458 0
-91 -454 455 0
-455 459 0
-92 -455 456 0
-456 460 0
-93 -456 0
-90 457 0
-457 461 0
-91 -457 458 0
-458 462 0
-92 -458 459 0
-459 463 0
-93 -459 460 0
-460 464 0
-94 -460 0
-91 461 0
-461 465 0
-92 -461 462 0
-462 466 0
-93 -462 463 0
-463 467 0
-94 -463 464 0
-464 468 0
-95 -464 0
-92 465 0
-465 469 0
-93 -465 466 0
-466 470 0
-94 -466 467 0
-467 471 0
-95 -467 468 0
-468 472 0
-96 -468 0
-93 469 0
-469 473 0
-94 -469 470 0
-470 474 0
-95 -470 471 0
-471 475 0
-96 -471 472 0
-472 476 0
-97 -472 0
-94 473 0
-473 477 0
-95 -473 474 0
-474 478 0
-96 -474 475 0
-475 479 0
-97 -475 476 0
-476 480 0
-98 -476 0
-95 477 0
-477 481 0
-96 -477 478 0
-478 482 0
-97 -478 479 0
-479 483 0
-98 -479 480 0
-480 484 0
-99 -480 0
-96 481 0
-97 -481 482 0
-98 -482 483 0
-99 -483 484 0
-100 -484 0
